c ren 1 -> 1
c ren 2 -> 2
c ren 3 -> 3
c ren 4 -> 4
c ren 5 -> 5
c ren 6 -> 6
c ren 7 -> 7
c ren 8 -> 8
c ren 9 -> 9
c ren 10 -> 10
c ren 11 -> 11
c ren 12 -> 12
c ren 13 -> 13
c ren 14 -> 14
c ren 15 -> 15
c ren 16 -> 16
c ren 17 -> 17
c ren 18 -> 18
c ren 19 -> 19
c ren 20 -> 20
c ren 21 -> 21
c ren 22 -> 22
c ren 23 -> 23
c ren 24 -> 24
c ren 25 -> 25
c ren 26 -> 26
c ren 27 -> 27
c ren 28 -> 28
c ren 29 -> 29
c ren 30 -> 30
c ren 31 -> 31
c ren 32 -> 32
c ren 33 -> 33
c ren 34 -> 34
c ren 35 -> 35
c ren 36 -> 36
c ren 38 -> 37
c ren 41 -> 38
c ren 59 -> 39
c ren 62 -> 40
c ren 64 -> 41
c ren 72 -> 42
c ren 79 -> 43
c ren 86 -> 44
c ren 93 -> 45
c ren 100 -> 46
c ren 114 -> 47
c ren 130 -> 48
c ren 140 -> 49
c ren 149 -> 50
c ren 158 -> 51
c ren 167 -> 52
c ren 176 -> 53
c ren 185 -> 54
c ren 214 -> 55
c ren 225 -> 56
c ren 234 -> 57
c ren 242 -> 58
c ren 250 -> 59
c ren 258 -> 60
c ren 266 -> 61
c ren 274 -> 62
c ren 292 -> 63
c ren 308 -> 64
c ren 312 -> 65
c ren 313 -> 66
c ren 314 -> 67
c ren 315 -> 68
c ren 316 -> 69
c ren 317 -> 70
c ren 318 -> 71
c ren 319 -> 72
c ren 320 -> 73
c ren 321 -> 74
c ren 322 -> 75
c ren 323 -> 76
c ren 324 -> 77
c ren 325 -> 78
c ren 326 -> 79
c ren 327 -> 80
c ren 328 -> 81
c ren 329 -> 82
c ren 330 -> 83
c ren 331 -> 84
c ren 332 -> 85
c ren 333 -> 86
c ren 334 -> 87
c ren 335 -> 88
c ren 336 -> 89
c ren 337 -> 90
c ren 338 -> 91
c ren 339 -> 92
c ren 340 -> 93
c ren 341 -> 94
c ren 342 -> 95
c ren 343 -> 96
c ren 344 -> 97
c ren 345 -> 98
c ren 346 -> 99
c ren 347 -> 100
c ren 348 -> 101
c ren 349 -> 102
c ren 350 -> 103
c ren 351 -> 104
c ren 352 -> 105
c ren 353 -> 106
c ren 354 -> 107
c ren 355 -> 108
c ren 356 -> 109
c ren 357 -> 110
c ren 358 -> 111
c ren 359 -> 112
c ren 360 -> 113
c ren 361 -> 114
c ren 362 -> 115
c ren 363 -> 116
c ren 364 -> 117
c ren 365 -> 118
c ren 366 -> 119
c ren 367 -> 120
c ren 405 -> 121
c ren 414 -> 122
c ren 422 -> 123
c ren 430 -> 124
c ren 438 -> 125
c ren 511 -> 126
c ren 512 -> 127
c ren 513 -> 128
c ren 514 -> 129
c ren 515 -> 130
c ren 516 -> 131
c ren 517 -> 132
c ren 518 -> 133
c ren 519 -> 134
c ren 520 -> 135
c ren 521 -> 136
c ren 522 -> 137
c ren 523 -> 138
c ren 524 -> 139
c ren 525 -> 140
c ren 526 -> 141
c ren 527 -> 142
c ren 528 -> 143
c ren 529 -> 144
c ren 530 -> 145
c ren 531 -> 146
c ren 532 -> 147
c ren 533 -> 148
c ren 534 -> 149
c ren 535 -> 150
c ren 536 -> 151
c ren 537 -> 152
c ren 538 -> 153
c ren 539 -> 154
c ren 540 -> 155
c ren 541 -> 156
c ren 542 -> 157
c ren 544 -> 158
c ren 545 -> 159
c ren 546 -> 160
c ren 547 -> 161
c ren 548 -> 162
c ren 549 -> 163
c ren 550 -> 164
c ren 551 -> 165
c ren 552 -> 166
c ren 553 -> 167
c ren 554 -> 168
c ren 555 -> 169
c ren 556 -> 170
p cnf 170 637
a 1 2 3 4 5 6 7 8 9 10 11 12 13 14 15 16 17 18 19 20 21 22 23 24 25 26 27 28 29 30 31 32 33 34 35 36 74 75 76 77 78 79 80 81 82 83 84 85 86 87 88 89 90 91 92 93 94 95 96 97 98 99 100 101 102 103 104 105 106 107 108 109 110 111 112 113 114 115 116 117 118 119 120 0
d 65 74 75 76 77 78 79 80 81 82 83 84 85 86 87 88 89 90 91 92 93 94 95 96 97 98 99 100 101 102 103 104 105 106 107 108 109 110 111 112 113 114 115 116 117 118 119 120 0
d 66 74 76 77 78 79 80 81 82 83 84 85 86 87 88 89 90 91 92 93 94 95 96 98 99 100 101 102 103 104 105 106 107 108 109 110 111 112 113 118 119 120 0
d 67 74 0
d 68 76 77 78 79 80 81 82 83 84 85 86 87 88 89 90 91 92 93 94 95 96 0
d 69 76 77 78 79 80 81 82 83 84 85 86 87 88 89 90 91 92 93 94 95 96 0
d 70 76 77 78 79 80 81 82 83 84 85 86 87 88 89 90 91 92 93 94 95 96 98 99 100 101 102 103 104 105 106 107 108 109 110 111 112 113 0
d 71 76 77 78 79 80 81 82 83 84 85 86 87 88 89 90 91 92 93 94 95 96 98 99 100 101 102 103 104 105 106 107 108 109 110 111 112 113 0
d 72 74 76 77 78 79 80 81 82 83 84 85 86 87 88 89 90 91 92 93 94 95 96 98 99 100 101 102 103 104 105 106 107 108 109 110 111 112 113 115 116 117 0
d 73 74 75 76 77 78 79 80 81 82 83 84 85 86 87 88 89 90 91 92 93 94 95 96 97 98 99 100 101 102 103 104 105 106 107 108 109 110 111 112 113 114 0
e 37 38 39 40 41 42 43 44 45 46 47 48 49 50 51 52 53 54 55 56 57 58 59 60 61 62 63 64 121 122 123 124 125 126 127 128 129 130 131 132 133 134 135 136 137 138 139 140 141 142 143 144 145 146 147 148 149 150 151 152 153 154 155 156 157 158 159 160 161 162 163 164 165 166 167 168 169 170 0
-1 -37 0
2 -37 0
-4 -38 0
6 -38 0
-10 13 -41 -48 51 0
8 -10 -41 0
-14 17 -41 -48 52 0
12 -14 -41 0
-18 21 -41 -48 53 0
16 -18 -41 0
20 -22 -41 0
-26 29 -41 -48 -55 0
24 -26 -41 0
-28 -39 0
30 -39 0
-32 -40 0
34 -40 0
-37 -41 0
-38 -41 0
8 -10 11 44 0
12 -14 15 45 0
16 -18 19 46 0
20 -22 25 -48 54 0
24 -26 27 47 0
-39 -41 0
-40 -41 0
-57 122 -123 -126 0
37 41 -49 0
-2 5 -41 -48 49 0
26 41 91 -144 0
5 -37 -48 49 0
18 41 87 -140 0
-2 3 -41 42 0
22 41 89 -142 0
-3 -42 0
3 -37 42 0
-8 14 -16 -20 26 37 38 39 40 41 0
18 -41 -87 -140 0
-8 14 -16 -20 -24 37 38 39 40 41 0
2 -42 0
38 41 -50 0
-6 9 -41 -48 50 0
-8 14 -16 22 26 37 38 39 40 41 0
9 -38 -48 50 0
-8 14 18 -20 -24 37 38 39 40 41 0
-6 7 -41 43 0
14 41 85 -138 0
14 -41 -85 -138 0
-7 -43 0
7 -38 43 0
-8 14 18 22 -24 37 38 39 40 41 0
-8 14 -16 22 -24 37 38 39 40 41 0
-8 14 18 -20 26 37 38 39 40 41 0
6 -43 0
-8 -12 -16 -20 -24 37 38 39 40 41 0
-34 35 -63 67 70 121 -126 0
-8 -41 -83 -136 0
8 -10 -83 -136 0
-10 11 -41 44 0
-8 14 18 22 26 37 38 39 40 41 0
-34 36 -63 67 68 121 -126 0
10 84 -137 0
10 -41 -83 -136 0
-8 -12 -16 22 -24 37 38 39 40 41 0
-29 30 -35 48 49 50 51 52 53 54 55 0
-12 -41 -85 -138 0
12 -14 -85 -138 0
-14 15 -41 45 0
8 -10 13 -48 51 0
-63 121 -125 -126 0
14 86 -139 0
-8 -12 -16 -20 26 37 38 39 40 41 0
57 59 -60 64 -73 123 125 -126 0
-8 -12 18 -20 -24 37 38 39 40 41 0
-30 -41 -48 -55 58 59 62 64 0
-16 -41 -87 -140 0
16 -18 -87 -140 0
-18 19 -41 46 0
12 -14 17 -48 52 0
18 88 -141 0
-8 -12 -16 22 26 37 38 39 40 41 0
-20 -31 -35 41 42 43 44 45 46 47 48 0
-22 23 -41 -48 0
-20 -31 40 41 42 43 44 45 46 47 48 0
20 -22 -89 -142 0
-22 25 -41 -48 54 0
-20 30 -35 41 42 43 44 45 46 47 48 0
-34 35 36 -56 67 121 -126 0
22 90 -143 0
-22 23 -90 -143 0
-8 -12 18 22 -24 37 38 39 40 41 0
20 -22 23 -48 0
22 -35 39 41 42 43 44 45 46 47 48 0
-24 -33 -36 41 49 50 51 52 53 54 55 0
57 58 59 60 72 -126 0
24 -26 -91 -144 0
-26 27 -41 47 0
-24 -33 40 41 49 50 51 52 53 54 55 0
-59 -66 -72 122 123 -126 0
26 92 -145 0
-24 -31 -36 41 48 49 50 51 52 53 54 55 0
58 -59 -72 73 122 -126 0
-30 33 -41 -48 58 59 62 64 0
-29 -36 39 41 49 50 51 52 53 54 55 0
-30 31 -41 -48 0
-29 -35 39 41 48 49 50 51 52 53 54 55 0
30 94 -147 0
-30 31 -94 -147 0
57 -122 -126 0
-23 -31 34 42 43 44 45 46 47 48 0
-39 -93 -146 0
-29 -31 40 41 48 49 50 51 52 53 54 55 0
-29 -33 40 41 49 50 51 52 53 54 55 0
-34 35 -41 -48 0
22 30 40 41 42 43 44 45 46 47 48 0
34 96 -149 0
-34 35 -96 -149 0
-35 96 -149 0
-40 -95 -148 0
40 41 95 -148 0
-42 -48 0
-43 -48 0
-44 -48 0
-45 -48 0
-46 -48 0
-47 -48 0
-57 -65 122 -126 0
-31 -36 47 48 49 50 51 52 53 54 55 0
-23 30 34 42 43 44 45 46 47 48 0
37 41 -42 0
-23 -35 39 41 42 43 44 45 46 47 48 0
5 -37 -42 49 0
-23 39 40 41 42 43 44 45 46 47 48 0
10 14 18 22 -24 37 38 39 40 41 0
-5 -49 0
10 14 18 -20 26 37 38 39 40 41 0
10 14 18 22 26 37 38 39 40 41 0
2 -49 0
42 48 -49 0
5 -41 -42 49 0
38 41 -43 0
9 -38 -43 50 0
-9 -50 0
6 -50 0
43 48 -50 0
9 -41 -43 50 0
-8 41 -44 0
-13 -51 0
10 -51 0
44 48 -51 0
13 -44 51 0
-12 41 -45 0
-17 -52 0
14 -52 0
45 48 -52 0
17 -45 52 0
-16 41 -46 0
-21 -53 0
18 -53 0
46 48 -53 0
21 -46 53 0
-20 -41 -89 -142 0
-25 -54 0
22 -54 0
-8 -12 18 22 26 37 38 39 40 41 0
-20 30 34 41 42 43 44 45 46 47 48 0
10 14 -16 -20 26 37 38 39 40 41 0
-24 41 -47 0
-33 -35 47 48 49 50 51 52 53 54 55 0
-33 34 47 48 49 50 51 52 53 54 55 0
26 -36 39 41 49 50 51 52 53 54 55 0
-29 -33 34 49 50 51 52 53 54 55 0
-24 -33 -35 41 48 49 50 51 52 53 54 55 0
26 -33 -36 49 50 51 52 53 54 55 0
29 -47 -55 0
22 30 34 42 43 44 45 46 47 48 0
-24 -31 40 41 48 49 50 51 52 53 54 55 0
-33 -36 47 48 49 50 51 52 53 54 55 0
22 -31 40 41 42 43 44 45 46 47 48 0
26 -41 -91 -144 0
-24 30 -36 41 49 50 51 52 53 54 55 0
20 -22 23 25 54 0
-8 -12 18 -20 26 37 38 39 40 41 0
-24 30 -35 41 48 49 50 51 52 53 54 55 0
26 30 40 41 49 50 51 52 53 54 55 0
-29 -31 -36 48 49 50 51 52 53 54 55 0
22 -41 -89 -142 0
39 41 93 -146 0
31 -39 -48 0
36 -40 -48 -55 0
-29 39 40 41 49 50 51 52 53 54 55 0
26 34 39 41 49 50 51 52 53 54 55 0
30 -35 47 48 49 50 51 52 53 54 55 0
35 -40 -48 0
-33 40 41 47 48 49 50 51 52 53 54 55 0
30 34 47 48 49 50 51 52 53 54 55 0
-41 -95 -148 0
-29 -31 -35 48 49 50 51 52 53 54 55 0
30 -36 47 48 49 50 51 52 53 54 55 0
-29 -31 34 48 49 50 51 52 53 54 55 0
-24 39 40 41 49 50 51 52 53 54 55 0
26 -33 34 49 50 51 52 53 54 55 0
22 30 -35 42 43 44 45 46 47 48 0
30 40 41 47 48 49 50 51 52 53 54 55 0
-29 30 40 41 49 50 51 52 53 54 55 0
26 30 -36 49 50 51 52 53 54 55 0
26 39 40 41 49 50 51 52 53 54 55 0
26 30 34 49 50 51 52 53 54 55 0
-49 -55 0
-50 -55 0
-51 -55 0
-52 -55 0
-53 -55 0
-54 -55 0
33 -39 -48 -55 0
34 39 41 47 48 49 50 51 52 53 54 55 0
-41 -93 -146 0
-31 40 41 47 48 49 50 51 52 53 54 55 0
1 -2 3 -55 56 0
-1 41 -56 0
-2 5 -41 -48 56 0
1 -2 -48 -55 56 0
-3 48 -56 0
-2 -41 -48 -55 56 0
-2 3 -41 -55 56 0
-5 55 -56 0
-24 30 40 41 49 50 51 52 53 54 55 0
2 -56 0
1 -2 3 5 56 0
1 -2 5 -48 56 0
-2 3 5 -41 56 0
26 30 -35 48 49 50 51 52 53 54 55 0
4 -6 7 -55 57 0
-4 41 -57 0
-6 9 -41 -48 57 0
4 -6 -48 -55 57 0
-7 48 -57 0
-6 -41 -48 -55 57 0
-6 7 -41 -55 57 0
-9 55 -57 0
-24 -35 39 41 48 49 50 51 52 53 54 55 0
4 -6 7 9 57 0
4 -6 9 -48 57 0
-6 7 9 -41 57 0
6 -57 0
8 -10 11 -55 58 0
-8 41 -58 0
-10 13 -41 -48 58 0
8 -10 -48 -55 58 0
-11 48 -58 0
-10 -41 -48 -55 58 0
-10 11 -41 -55 58 0
-13 55 -58 0
-29 -33 -36 49 50 51 52 53 54 55 0
8 -10 11 13 58 0
8 -10 13 -48 58 0
-10 11 13 -41 58 0
10 -58 0
-24 -36 39 41 49 50 51 52 53 54 55 0
12 -14 15 -55 59 0
-12 41 -59 0
-14 17 -41 -48 59 0
12 -14 -48 -55 59 0
-15 48 -59 0
-14 -41 -48 -55 59 0
-14 15 -41 -55 59 0
-17 55 -59 0
-29 -33 -35 48 49 50 51 52 53 54 55 0
12 -14 15 17 59 0
12 -14 17 -48 59 0
-14 15 17 -41 59 0
14 -59 0
24 -26 29 -48 -55 0
16 -18 19 -55 60 0
-16 41 -60 0
-18 21 -41 -48 60 0
16 -18 -48 -55 60 0
-19 48 -60 0
-18 -41 -48 -55 60 0
-18 19 -41 -55 60 0
-21 55 -60 0
22 34 39 41 42 43 44 45 46 47 48 0
16 -18 19 21 60 0
16 -18 21 -48 60 0
-18 19 21 -41 60 0
18 -60 0
-57 -72 122 -125 -126 0
20 -22 23 -55 61 0
-20 41 -61 0
-22 25 -41 -48 61 0
20 -22 -48 -55 61 0
-23 48 -61 0
-22 -41 -48 -55 61 0
-22 23 -41 -55 61 0
-25 55 -61 0
-23 90 -143 0
20 -22 23 25 61 0
20 -22 25 -48 61 0
-22 23 25 -41 61 0
22 -61 0
-35 39 41 47 48 49 50 51 52 53 54 55 0
24 -26 27 -55 62 0
-24 41 -62 0
-26 29 -41 -48 62 0
24 -26 -48 -55 62 0
-27 48 -62 0
-26 -41 -48 -55 62 0
-26 27 -41 -55 62 0
-29 55 -62 0
-31 -35 47 48 49 50 51 52 53 54 55 0
24 -26 27 29 62 0
24 -26 29 -48 62 0
-26 27 29 -41 62 0
26 -62 0
-29 30 -36 49 50 51 52 53 54 55 0
28 -30 31 33 58 59 62 64 0
-28 41 -64 0
-30 31 -41 -55 -63 0
28 -30 31 -55 58 59 62 64 0
-31 48 -64 0
-30 31 33 -41 -63 0
28 -30 33 -48 58 59 62 64 0
-33 55 -64 0
-30 31 33 -41 58 59 62 64 0
30 -36 55 57 58 59 60 61 62 63 0
28 -30 -48 -55 -63 0
28 -30 -48 -55 58 59 62 64 0
30 -64 0
28 -30 31 33 -63 0
32 -34 36 -48 -63 0
-28 -32 41 57 58 59 60 61 62 63 0
-34 -41 -48 -55 -63 0
-34 35 36 -41 -63 0
-28 -35 41 48 57 58 59 60 61 62 63 0
-31 34 48 57 58 59 60 61 62 63 0
-34 36 -41 -48 -63 0
-28 -36 41 55 57 58 59 60 61 62 63 0
-31 -36 48 55 57 58 59 60 61 62 63 0
-34 35 -41 -55 -63 0
-31 -35 48 57 58 59 60 61 62 63 0
-28 34 41 57 58 59 60 61 62 63 0
32 -34 35 36 -63 0
28 -30 31 -55 -63 0
-57 -63 0
-58 -63 0
-59 -63 0
-60 -63 0
-61 -63 0
-62 -63 0
30 34 57 58 59 60 61 62 63 0
32 -34 -48 -55 -63 0
-31 -32 41 48 57 58 59 60 61 62 63 0
-56 121 -125 -126 0
56 63 -121 -126 0
59 60 -62 -65 122 123 124 -126 0
-64 66 -72 122 -125 -126 0
57 58 59 60 -123 -126 0
57 59 61 64 -73 123 125 -126 0
57 59 61 64 72 123 -126 0
-58 -66 -72 122 123 -126 0
58 59 60 -61 122 -123 -126 0
58 60 -61 66 -72 73 122 -126 0
58 59 60 -61 -65 66 122 -126 0
57 59 61 64 -66 123 -124 -126 0
58 60 -61 -72 73 122 124 -126 0
57 58 -60 -123 -126 0
57 58 -59 -123 -126 0
57 -60 -66 -72 123 -124 -126 0
-58 -64 0
-59 -64 0
-62 -64 0
30 -32 41 57 58 59 60 61 62 63 0
30 -35 48 57 58 59 60 61 62 63 0
57 -58 -73 123 125 -126 0
57 -58 72 123 -126 0
1 -2 37 0
58 59 60 -61 -65 122 124 -126 0
4 -6 38 0
28 -30 39 0
32 -34 40 0
-34 -63 67 68 70 121 -126 0
-33 34 55 57 58 59 60 61 62 63 0
-33 -35 48 55 57 58 59 60 61 62 63 0
-33 -36 55 57 58 59 60 61 62 63 0
-32 -33 41 55 57 58 59 60 61 62 63 0
28 -30 33 -48 -63 0
-30 31 -41 -55 58 59 62 64 0
-24 -41 -91 -144 0
1 -2 3 70 121 0
-1 -67 -121 0
-2 5 67 68 121 0
1 -2 68 70 121 0
-3 -68 -121 0
-2 67 68 70 121 0
-2 3 67 70 121 0
-5 -70 -121 0
-63 73 121 -126 0
2 -121 0
1 -2 3 5 121 0
1 -2 5 68 121 0
-2 3 5 67 121 0
-63 72 121 -126 0
4 -6 7 70 122 0
-4 -67 -122 0
-6 9 67 68 122 0
4 -6 68 70 122 0
-7 -68 -122 0
-6 67 68 70 122 0
-6 7 67 70 122 0
-9 -70 -122 0
-63 121 -123 -126 0
4 -6 7 9 122 0
4 -6 9 68 122 0
-6 7 9 67 122 0
6 -122 0
-63 121 -122 -126 0
8 -10 11 70 123 0
-8 -67 -123 0
-10 13 67 68 123 0
8 -10 68 70 123 0
-11 -68 -123 0
-10 67 68 70 123 0
-10 11 67 70 123 0
-13 -70 -123 0
8 -10 11 13 123 0
8 -10 13 68 123 0
-10 11 13 67 123 0
10 -123 0
-63 121 -124 -126 0
20 -22 23 70 124 0
-20 -67 -124 0
-22 25 67 68 124 0
20 -22 68 70 124 0
-23 -68 -124 0
-22 67 68 70 124 0
-22 23 67 70 124 0
-25 -70 -124 0
20 -22 23 25 124 0
20 -22 25 68 124 0
-22 23 25 67 124 0
22 -124 0
28 -30 31 70 125 0
-28 -67 -125 0
-30 33 67 68 125 0
28 -30 68 70 125 0
-31 -68 -125 0
-30 67 68 70 125 0
-30 31 67 70 125 0
-33 -70 -125 0
32 -34 35 -55 -63 0
28 -30 31 33 125 0
28 -30 33 68 125 0
-30 31 33 67 125 0
30 -125 0
-32 56 63 -66 -67 -72 -73 122 123 124 125 -126 0
-34 36 -56 67 68 121 -126 0
34 56 63 -66 -72 -73 122 123 124 125 -126 0
32 -34 36 -56 68 121 -126 0
-34 35 -56 67 70 121 -126 0
-35 56 63 -66 -68 -72 -73 122 123 124 125 -126 0
32 -34 35 36 -56 121 -126 0
32 -34 -56 68 70 121 -126 0
-56 73 121 -126 0
-56 121 -122 -126 0
-56 121 -123 -126 0
-56 66 121 -126 0
-36 56 63 -66 -70 -72 -73 122 123 124 125 -126 0
-64 122 -123 -126 0
-60 -66 -72 122 123 -126 0
58 -59 66 -72 122 -125 -126 0
57 -59 -66 -72 123 -124 -126 0
57 58 61 62 65 -126 0
57 -58 -66 -72 123 -124 -126 0
-64 66 -72 73 122 -126 0
57 58 -60 65 -126 0
58 59 60 -61 -65 72 122 -126 0
-58 -65 72 122 123 -126 0
58 60 -61 -72 122 124 -125 -126 0
58 60 -61 66 -72 122 -125 -126 0
32 -34 36 -63 68 121 -126 0
32 -34 -63 68 70 121 -126 0
10 -12 -16 22 -24 37 38 39 40 41 0
10 -12 -16 -20 -24 37 38 39 40 41 0
-34 35 36 -63 67 121 -126 0
-8 41 -51 0
10 -12 18 22 -24 37 38 39 40 41 0
-29 30 34 49 50 51 52 53 54 55 0
10 -12 18 -20 -24 37 38 39 40 41 0
32 -34 35 -63 70 121 -126 0
-12 41 -52 0
10 14 -16 22 -24 37 38 39 40 41 0
-30 -41 -48 -55 -63 0
10 14 -16 -20 -24 37 38 39 40 41 0
-16 41 -53 0
-31 94 -147 0
59 60 -62 -65 66 122 123 -126 0
10 14 18 -20 -24 37 38 39 40 41 0
32 -34 35 -56 70 121 -126 0
-20 39 40 41 42 43 44 45 46 47 48 0
-56 72 121 -126 0
-23 -31 -35 42 43 44 45 46 47 48 0
57 58 59 60 66 -126 0
57 61 62 -66 -72 123 -124 -126 0
-57 66 -72 73 122 -126 0
-23 48 -54 0
-31 34 47 48 49 50 51 52 53 54 55 0
-64 -72 73 122 124 -126 0
-23 -31 40 41 42 43 44 45 46 47 48 0
31 33 -39 -55 0
57 58 61 62 -123 -126 0
-24 34 39 41 49 50 51 52 53 54 55 0
57 58 -59 65 -126 0
-58 -65 66 122 123 -126 0
-23 30 -35 42 43 44 45 46 47 48 0
35 36 -40 -55 0
16 -18 21 -48 53 0
-30 33 -41 -48 -63 0
26 -33 40 41 49 50 51 52 53 54 55 0
48 -69 -126 0
-48 69 -126 0
55 -71 -126 0
-55 71 -126 0
-56 121 -124 -126 0
-57 -66 -72 122 123 -126 0
-57 -72 73 122 124 -126 0
58 -59 122 -123 -126 0
58 -59 -72 122 124 -125 -126 0
-41 -74 -127 0
41 74 -127 0
-24 -75 -128 0
24 75 -128 0
41 -76 -129 0
-41 76 -129 0
37 -77 -130 0
-37 77 -130 0
-3 -78 -131 0
3 78 -131 0
2 -79 -132 0
-2 79 -132 0
38 -80 -133 0
-38 80 -133 0
-7 -81 -134 0
7 81 -134 0
6 -82 -135 0
-6 82 -135 0
-8 41 83 -136 0
10 41 83 -136 0
10 -44 0
-10 11 -84 -137 0
-11 84 -137 0
-11 -44 0
-12 41 85 -138 0
10 -12 -16 -20 26 37 38 39 40 41 0
10 -12 -16 22 26 37 38 39 40 41 0
14 -45 0
-14 15 -86 -139 0
-15 86 -139 0
-15 -45 0
-16 41 87 -140 0
10 -12 18 -20 26 37 38 39 40 41 0
10 -12 18 22 26 37 38 39 40 41 0
18 -46 0
-18 19 -88 -141 0
-19 88 -141 0
-19 -46 0
-20 41 -54 0
-20 30 40 41 42 43 44 45 46 47 48 0
-20 -35 39 41 42 43 44 45 46 47 48 0
-20 41 89 -142 0
22 -31 -35 42 43 44 45 46 47 48 0
22 -31 34 42 43 44 45 46 47 48 0
-24 41 91 -144 0
-24 -31 -35 41 48 49 50 51 52 53 54 55 0
26 -47 0
-26 27 -92 -145 0
-27 92 -145 0
-27 -47 0
-30 33 -41 -48 -55 0
-30 31 33 -41 -55 0
-36 39 41 47 48 49 50 51 52 53 54 55 0
22 39 40 41 42 43 44 45 46 47 48 0
39 40 41 47 48 49 50 51 52 53 54 55 0
10 14 -16 22 26 37 38 39 40 41 0
-22 23 25 -41 54 0
-34 36 -41 -48 -55 0
-34 35 36 -41 -55 0
-24 30 34 41 49 50 51 52 53 54 55 0
-27 -97 -150 0
27 97 -150 0
-5 -98 -151 0
5 98 -151 0
-9 -99 -152 0
-58 -65 122 123 124 -126 0
9 99 -152 0
-13 -100 -153 0
-64 -72 122 124 -125 -126 0
13 100 -153 0
10 -101 -154 0
-10 101 -154 0
-17 -102 -155 0
17 102 -155 0
14 -103 -156 0
-14 103 -156 0
-21 -104 -157 0
21 104 -157 0
18 19 -105 119 120 126 127 128 129 130 131 132 133 134 135 136 137 138 139 140 141 142 143 144 145 146 147 148 149 150 151 152 153 154 155 156 157 158 159 160 161 162 163 164 165 166 167 168 169 170 0
-18 19 105 119 -120 126 127 128 129 130 131 132 133 134 135 136 137 138 139 140 141 142 143 144 145 146 147 148 149 150 151 152 153 154 155 156 157 158 159 160 161 162 163 164 165 166 167 168 169 170 0
-25 -106 -158 0
25 106 -158 0
22 -107 -159 0
-22 107 -159 0
-29 -108 -160 0
29 108 -160 0
26 -109 -161 0
-26 109 -161 0
-33 -110 -162 0
33 110 -162 0
30 -111 -163 0
-30 111 -163 0
-36 -112 -164 0
57 59 -60 64 72 123 -126 0
36 112 -164 0
34 -113 -165 0
-34 113 -165 0
-26 -114 -166 0
26 114 -166 0
-12 -115 -167 0
12 115 -167 0
-15 -116 -168 0
15 116 -168 0
-14 -117 -169 0
14 117 -169 0
-16 -118 -170 0
16 118 -170 0
18 -19 -105 -119 120 126 127 128 129 130 131 132 133 134 135 136 137 138 139 140 141 142 143 144 145 146 147 148 149 150 151 152 153 154 155 156 157 158 159 160 161 162 163 164 165 166 167 168 169 170 0
59 60 -62 -65 72 122 123 -126 0
-18 -19 105 -119 -120 126 127 128 129 130 131 132 133 134 135 136 137 138 139 140 141 142 143 144 145 146 147 148 149 150 151 152 153 154 155 156 157 158 159 160 161 162 163 164 165 166 167 168 169 170 0
